Optimize a model with 401 rows, 440 columns and 2508 nonzeros
Model has 1 quadratic constraint
Coefficient statistics:
  Matrix range    [1e+00, 2e+01]
  Objective range [1e+02, 7e+02]
  Bounds range    [1e+00, 2e+01]
  RHS range       [1e+00, 2e+01]
Presolve removed 0 rows and 22 columns
Presolve time: 0.00s
Presolved: 763 rows, 779 columns, 3952 nonzeros
Variable types: 0 continuous, 779 integer (760 binary)

Root relaxation: objective 3.280000e+02, 20 iterations, 0.00 seconds

    Nodes    |    Current Node    |     Objective Bounds      |     Work
 Expl Unexpl |  Obj  Depth IntInf | Incumbent    BestBd   Gap | It/Node Time

     0     0  328.00000    0   11          -  328.00000      -     -    0s
     0     0  328.00000    0   11          -  328.00000      -     -    0s
     0     0  328.00000    0   12          -  328.00000      -     -    0s
     0     0  328.00000    0   12          -  328.00000      -     -    0s
     0     0  328.00000    0   13          -  328.00000      -     -    0s
     0     0  328.00000    0   13          -  328.00000      -     -    0s
H    0     0                    3866.0000000  328.00000  91.5%     -    0s
     0     2  328.00000    0   12 3866.00000  328.00000  91.5%     -    0s
H  324   324                    3000.0000000  517.00000  82.8%   1.6    0s
H  512   471                    2450.0000000 1104.96937  54.9%   2.2    0s
*  542   465              24    1530.0000000 1280.90929  16.3%   2.7    0s
* 2037   323              26    1522.0000000 1424.24657  6.42%   6.3    1s

Cutting planes:
  Learned: 3
  Implied bound: 4

Explored 2924 nodes (20166 simplex iterations) in 1.62 seconds
Thread count was 1 (of 4 available processors)

Optimal solution found (tolerance 1.00e-04)
Best objective 1.522000000000e+03, best bound 1.522000000000e+03, gap 0.0%
1522
(13,0) (0,14) (4,1) (1,13) (2,8) (14,2) (3,4) (19,3) (8,19) 
